eval/18-encs/equiv_enc_203.smt2
; PUSH 0x00 SHA3 SWAP1 MLOAD POP => SWAP1 NOT MLOAD SHA3
(set-option :produce-proofs true)
; 
(set-info :status unknown)
(declare-fun storage_t ((_ BitVec 256) (_ BitVec 256) (_ BitVec 256) (_ BitVec 256) Int (_ BitVec 256)) (_ BitVec 256))
(declare-fun storage_s ((_ BitVec 256) (_ BitVec 256) (_ BitVec 256) (_ BitVec 256) Int (_ BitVec 256)) (_ BitVec 256))
(declare-fun exc_halt_t (Int) Bool)
(declare-fun exc_halt_s (Int) Bool)
(declare-fun stack_t ((_ BitVec 256) (_ BitVec 256) (_ BitVec 256) (_ BitVec 256) Int (_ BitVec 6)) (_ BitVec 256))
(declare-fun stack_s ((_ BitVec 256) (_ BitVec 256) (_ BitVec 256) (_ BitVec 256) Int (_ BitVec 6)) (_ BitVec 256))
(declare-fun sc_t (Int) (_ BitVec 6))
(declare-fun sc_s (Int) (_ BitVec 6))
(declare-fun used_gas_t ((_ BitVec 256) (_ BitVec 256) (_ BitVec 256) (_ BitVec 256) Int) Int)
(declare-fun used_gas_s ((_ BitVec 256) (_ BitVec 256) (_ BitVec 256) (_ BitVec 256) Int) Int)
(declare-fun f_SHA3 ((_ BitVec 256) (_ BitVec 256) (_ BitVec 256) (_ BitVec 256) (_ BitVec 256) (_ BitVec 256)) (_ BitVec 256))
(declare-fun f_MLOAD ((_ BitVec 256) (_ BitVec 256) (_ BitVec 256) (_ BitVec 256) (_ BitVec 256)) (_ BitVec 256))
(assert
 (exists ((x_0 (_ BitVec 256)) (x_1 (_ BitVec 256)) (x_SHA3_0 (_ BitVec 256)) (x_MLOAD_0 (_ BitVec 256)) )(let (($x9102 (forall ((w (_ BitVec 256)) )(let ((?x2499 (storage_t x_0 x_1 x_SHA3_0 x_MLOAD_0 4 w)))
 (let ((?x3927 (storage_s x_0 x_1 x_SHA3_0 x_MLOAD_0 5 w)))
 (= ?x3927 ?x2499))))
 ))
 (let (($x3723 (exc_halt_t 4)))
 (let (($x3979 (exc_halt_s 5)))
 (let (($x7567 (= $x3979 $x3723)))
 (let (($x883 (forall ((n (_ BitVec 6)) )(let ((?x8165 (stack_t x_0 x_1 x_SHA3_0 x_MLOAD_0 4 n)))
 (let ((?x1144 (stack_s x_0 x_1 x_SHA3_0 x_MLOAD_0 5 n)))
 (let (($x7579 (= ?x1144 ?x8165)))
 (let ((?x3757 (sc_t 4)))
 (let (($x5280 (bvsle ?x3757 n)))
 (or $x5280 $x7579)))))))
 ))
 (let ((?x3757 (sc_t 4)))
 (let ((?x805 (sc_s 5)))
 (let (($x9143 (= ?x805 ?x3757)))
 (let ((?x8018 (used_gas_t x_0 x_1 x_SHA3_0 x_MLOAD_0 0)))
 (let ((?x7983 (used_gas_s x_0 x_1 x_SHA3_0 x_MLOAD_0 0)))
 (let (($x2987 (= ?x7983 ?x8018)))
 (let (($x541 (forall ((w (_ BitVec 256)) )(let ((?x8824 (storage_t x_0 x_1 x_SHA3_0 x_MLOAD_0 0 w)))
 (let ((?x4950 (storage_s x_0 x_1 x_SHA3_0 x_MLOAD_0 0 w)))
 (= ?x4950 ?x8824))))
 ))
 (let (($x56 (exc_halt_t 0)))
 (let (($x57 (exc_halt_s 0)))
 (let (($x58 (= $x57 $x56)))
 (let (($x6925 (forall ((n (_ BitVec 6)) )(let ((?x63 (sc_t 0)))
 (let (($x11524 (bvsle ?x63 n)))
 (let ((?x5487 (stack_t x_0 x_1 x_SHA3_0 x_MLOAD_0 0 n)))
 (let ((?x8010 (stack_s x_0 x_1 x_SHA3_0 x_MLOAD_0 0 n)))
 (let (($x5906 (= ?x8010 ?x5487)))
 (or $x5906 $x11524)))))))
 ))
 (let ((?x63 (sc_t 0)))
 (let ((?x72 (sc_s 0)))
 (let (($x73 (= ?x72 ?x63)))
 (let (($x9828 (= $x3723 (or (exc_halt_t 3) (not (bvsle (_ bv0 6) (bvadd (_ bv62 6) (sc_t 3))))))))
 (let (($x4777 (forall ((w (_ BitVec 256)) )(let ((?x3005 (storage_t x_0 x_1 x_SHA3_0 x_MLOAD_0 3 w)))
 (let ((?x2499 (storage_t x_0 x_1 x_SHA3_0 x_MLOAD_0 4 w)))
 (= ?x2499 ?x3005))))
 ))
 (let (($x3469 (forall ((n (_ BitVec 6)) )(let ((?x8181 (stack_t x_0 x_1 x_SHA3_0 x_MLOAD_0 3 n)))
 (let ((?x8165 (stack_t x_0 x_1 x_SHA3_0 x_MLOAD_0 4 n)))
 (let (($x3213 (= ?x8165 ?x8181)))
 (or $x3213 (bvsle (bvadd (_ bv62 6) (sc_t 3)) n))))))
 ))
 (let ((?x8325 (used_gas_t x_0 x_1 x_SHA3_0 x_MLOAD_0 4)))
 (let ((?x11842 (sc_t 3)))
 (let ((?x11478 (bvadd (_ bv63 6) ?x11842)))
 (let ((?x9153 (stack_t x_0 x_1 x_SHA3_0 x_MLOAD_0 3 ?x11478)))
 (let ((?x9969 (f_SHA3 x_0 x_1 x_SHA3_0 x_MLOAD_0 ?x9153 (stack_t x_0 x_1 x_SHA3_0 x_MLOAD_0 3 (bvadd (_ bv62 6) ?x11842)))))
 (let ((?x4511 (bvadd (_ bv63 6) ?x3757)))
 (let ((?x5407 (stack_t x_0 x_1 x_SHA3_0 x_MLOAD_0 4 ?x4511)))
 (let (($x4755 (exc_halt_t 3)))
 (let (($x509 (= $x4755 (or (exc_halt_t 2) (not (bvsle (_ bv0 6) (bvadd (_ bv63 6) (sc_t 2))))))))
 (let (($x5299 (forall ((w (_ BitVec 256)) )(let ((?x3848 (storage_t x_0 x_1 x_SHA3_0 x_MLOAD_0 2 w)))
 (let ((?x3005 (storage_t x_0 x_1 x_SHA3_0 x_MLOAD_0 3 w)))
 (= ?x3005 ?x3848))))
 ))
 (let (($x7098 (forall ((n (_ BitVec 6)) )(let ((?x4620 (stack_t x_0 x_1 x_SHA3_0 x_MLOAD_0 2 n)))
 (let ((?x8181 (stack_t x_0 x_1 x_SHA3_0 x_MLOAD_0 3 n)))
 (let (($x164 (= ?x8181 ?x4620)))
 (or $x164 (bvsle (bvadd (_ bv63 6) (sc_t 2)) n))))))
 ))
 (let ((?x4056 (sc_t 2)))
 (let (($x5319 (= ?x11842 ?x4056)))
 (let ((?x7568 (used_gas_t x_0 x_1 x_SHA3_0 x_MLOAD_0 3)))
 (let (($x1786 (= ?x7568 (+ 3 (used_gas_t x_0 x_1 x_SHA3_0 x_MLOAD_0 2)))))
 (let ((?x180 (bvadd (_ bv63 6) ?x4056)))
 (let ((?x8277 (stack_t x_0 x_1 x_SHA3_0 x_MLOAD_0 2 ?x180)))
 (let (($x903 (exc_halt_t 2)))
 (let (($x4091 (= $x903 (or (exc_halt_t 1) (not (bvsle (_ bv0 6) (bvadd (_ bv63 6) (sc_t 1))))))))
 (let (($x6953 (forall ((w (_ BitVec 256)) )(let ((?x7984 (storage_t x_0 x_1 x_SHA3_0 x_MLOAD_0 1 w)))
 (let ((?x3848 (storage_t x_0 x_1 x_SHA3_0 x_MLOAD_0 2 w)))
 (= ?x3848 ?x7984))))
 ))
 (let (($x7313 (forall ((n (_ BitVec 6)) )(let ((?x10097 (stack_t x_0 x_1 x_SHA3_0 x_MLOAD_0 1 n)))
 (let ((?x4620 (stack_t x_0 x_1 x_SHA3_0 x_MLOAD_0 2 n)))
 (let (($x9382 (= ?x4620 ?x10097)))
 (let ((?x4023 (sc_t 1)))
 (let ((?x4690 (bvadd (_ bv63 6) ?x4023)))
 (let (($x9217 (bvsle ?x4690 n)))
 (or $x9217 $x9382))))))))
 ))
 (let ((?x4023 (sc_t 1)))
 (let (($x5205 (= ?x4056 ?x4023)))
 (let ((?x9329 (used_gas_t x_0 x_1 x_SHA3_0 x_MLOAD_0 2)))
 (let (($x7888 (= ?x9329 (+ 3 (used_gas_t x_0 x_1 x_SHA3_0 x_MLOAD_0 1)))))
 (let (($x3505 (= ?x8277 (bvnot (stack_t x_0 x_1 x_SHA3_0 x_MLOAD_0 1 (bvadd (_ bv63 6) ?x4023))))))
 (let (($x3064 (forall ((w (_ BitVec 256)) )(let ((?x8824 (storage_t x_0 x_1 x_SHA3_0 x_MLOAD_0 0 w)))
 (let ((?x7984 (storage_t x_0 x_1 x_SHA3_0 x_MLOAD_0 1 w)))
 (= ?x7984 ?x8824))))
 ))
 (let (($x10523 (forall ((n (_ BitVec 6)) )(let ((?x5487 (stack_t x_0 x_1 x_SHA3_0 x_MLOAD_0 0 n)))
 (let ((?x10097 (stack_t x_0 x_1 x_SHA3_0 x_MLOAD_0 1 n)))
 (let (($x4521 (= ?x10097 ?x5487)))
 (let ((?x63 (sc_t 0)))
 (let ((?x61 (bvadd (_ bv62 6) ?x63)))
 (let (($x3491 (bvsle ?x61 n)))
 (or $x3491 $x4521))))))))
 ))
 (let ((?x2902 (used_gas_t x_0 x_1 x_SHA3_0 x_MLOAD_0 1)))
 (let (($x4745 (= ?x2902 (+ 3 ?x8018))))
 (let ((?x8045 (bvadd (_ bv63 6) ?x63)))
 (let ((?x7836 (stack_t x_0 x_1 x_SHA3_0 x_MLOAD_0 0 ?x8045)))
 (let ((?x6304 (bvadd (_ bv62 6) ?x4023)))
 (let ((?x6850 (stack_t x_0 x_1 x_SHA3_0 x_MLOAD_0 1 ?x6304)))
 (let ((?x61 (bvadd (_ bv62 6) ?x63)))
 (let ((?x9573 (stack_t x_0 x_1 x_SHA3_0 x_MLOAD_0 0 ?x61)))
 (let ((?x4690 (bvadd (_ bv63 6) ?x4023)))
 (let ((?x8164 (stack_t x_0 x_1 x_SHA3_0 x_MLOAD_0 1 ?x4690)))
 (let (($x5870 (= $x3979 (or (exc_halt_s 4) (not (bvsle (_ bv0 6) (bvadd (_ bv63 6) (sc_s 4))))))))
 (let (($x3553 (forall ((w (_ BitVec 256)) )(let ((?x9678 (storage_s x_0 x_1 x_SHA3_0 x_MLOAD_0 4 w)))
 (let ((?x3927 (storage_s x_0 x_1 x_SHA3_0 x_MLOAD_0 5 w)))
 (= ?x3927 ?x9678))))
 ))
 (let (($x8687 (forall ((n (_ BitVec 6)) )(let ((?x7612 (stack_s x_0 x_1 x_SHA3_0 x_MLOAD_0 4 n)))
 (let ((?x1144 (stack_s x_0 x_1 x_SHA3_0 x_MLOAD_0 5 n)))
 (let (($x9079 (= ?x1144 ?x7612)))
 (or (bvsle (bvadd (_ bv63 6) (sc_s 4)) n) $x9079)))))
 ))
 (let ((?x1720 (used_gas_s x_0 x_1 x_SHA3_0 x_MLOAD_0 5)))
 (let (($x64 (exc_halt_s 4)))
 (let (($x2359 (= $x64 (or (exc_halt_s 3) (not (bvsle (_ bv0 6) (bvadd (_ bv63 6) (sc_s 3))))))))
 (let (($x5859 (forall ((w (_ BitVec 256)) )(let ((?x8688 (storage_s x_0 x_1 x_SHA3_0 x_MLOAD_0 3 w)))
 (let ((?x9678 (storage_s x_0 x_1 x_SHA3_0 x_MLOAD_0 4 w)))
 (= ?x9678 ?x8688))))
 ))
 (let (($x10101 (forall ((n (_ BitVec 6)) )(let ((?x275 (sc_s 3)))
 (let ((?x3429 (bvadd (_ bv63 6) ?x275)))
 (let (($x7781 (bvsle ?x3429 n)))
 (let ((?x8758 (stack_s x_0 x_1 x_SHA3_0 x_MLOAD_0 3 n)))
 (let ((?x7612 (stack_s x_0 x_1 x_SHA3_0 x_MLOAD_0 4 n)))
 (let (($x2318 (= ?x7612 ?x8758)))
 (or $x2318 $x7781))))))))
 ))
 (let ((?x275 (sc_s 3)))
 (let ((?x4305 (sc_s 4)))
 (let (($x3747 (= ?x4305 ?x275)))
 (let ((?x6197 (used_gas_s x_0 x_1 x_SHA3_0 x_MLOAD_0 4)))
 (let (($x6108 (= ?x6197 (+ 3 (used_gas_s x_0 x_1 x_SHA3_0 x_MLOAD_0 3)))))
 (let ((?x3429 (bvadd (_ bv63 6) ?x275)))
 (let ((?x4281 (stack_s x_0 x_1 x_SHA3_0 x_MLOAD_0 3 ?x3429)))
 (let ((?x129 (bvadd (_ bv63 6) ?x4305)))
 (let ((?x3821 (stack_s x_0 x_1 x_SHA3_0 x_MLOAD_0 4 ?x129)))
 (let (($x292 (exc_halt_s 3)))
 (let (($x7400 (= $x292 (or (exc_halt_s 2) (not (bvsle (_ bv0 6) (bvadd (_ bv62 6) (sc_s 2))))))))
 (let (($x3942 (forall ((w (_ BitVec 256)) )(let ((?x5827 (storage_s x_0 x_1 x_SHA3_0 x_MLOAD_0 2 w)))
 (let ((?x8688 (storage_s x_0 x_1 x_SHA3_0 x_MLOAD_0 3 w)))
 (= ?x8688 ?x5827))))
 ))
 (let (($x9349 (forall ((n (_ BitVec 6)) )(let ((?x3867 (stack_s x_0 x_1 x_SHA3_0 x_MLOAD_0 2 n)))
 (let ((?x8758 (stack_s x_0 x_1 x_SHA3_0 x_MLOAD_0 3 n)))
 (let (($x8552 (= ?x8758 ?x3867)))
 (or $x8552 (bvsle (bvadd (_ bv62 6) (sc_s 2)) n))))))
 ))
 (let ((?x218 (sc_s 2)))
 (let (($x4482 (= ?x275 ?x218)))
 (let ((?x6636 (used_gas_s x_0 x_1 x_SHA3_0 x_MLOAD_0 3)))
 (let (($x2766 (= ?x6636 (+ 3 (used_gas_s x_0 x_1 x_SHA3_0 x_MLOAD_0 2)))))
 (let ((?x500 (bvadd (_ bv63 6) ?x218)))
 (let ((?x7214 (stack_s x_0 x_1 x_SHA3_0 x_MLOAD_0 2 ?x500)))
 (let ((?x11507 (bvadd (_ bv62 6) ?x275)))
 (let ((?x8067 (stack_s x_0 x_1 x_SHA3_0 x_MLOAD_0 3 ?x11507)))
 (let (($x247 (exc_halt_s 2)))
 (let (($x5135 (= $x247 (or (exc_halt_s 1) (not (bvsle (_ bv0 6) (bvadd (_ bv62 6) (sc_s 1))))))))
 (let (($x1881 (forall ((w (_ BitVec 256)) )(let ((?x7465 (storage_s x_0 x_1 x_SHA3_0 x_MLOAD_0 1 w)))
 (let ((?x5827 (storage_s x_0 x_1 x_SHA3_0 x_MLOAD_0 2 w)))
 (= ?x5827 ?x7465))))
 ))
 (let (($x10147 (forall ((n (_ BitVec 6)) )(let ((?x2184 (stack_s x_0 x_1 x_SHA3_0 x_MLOAD_0 1 n)))
 (let ((?x3867 (stack_s x_0 x_1 x_SHA3_0 x_MLOAD_0 2 n)))
 (let (($x8746 (= ?x3867 ?x2184)))
 (or $x8746 (bvsle (bvadd (_ bv62 6) (sc_s 1)) n))))))
 ))
 (let ((?x7909 (used_gas_s x_0 x_1 x_SHA3_0 x_MLOAD_0 2)))
 (let ((?x154 (sc_s 1)))
 (let ((?x11806 (bvadd (_ bv63 6) ?x154)))
 (let ((?x478 (stack_s x_0 x_1 x_SHA3_0 x_MLOAD_0 1 ?x11806)))
 (let ((?x10447 (f_SHA3 x_0 x_1 x_SHA3_0 x_MLOAD_0 ?x478 (stack_s x_0 x_1 x_SHA3_0 x_MLOAD_0 1 (bvadd (_ bv62 6) ?x154)))))
 (let (($x189 (exc_halt_s 1)))
 (let (($x5732 (= $x189 (or $x57 (not (= ((_ extract 6 6) (bvadd (_ bv1 7) (concat (_ bv0 1) ?x72))) (_ bv0 1)))))))
 (let (($x6880 (forall ((w (_ BitVec 256)) )(let ((?x4950 (storage_s x_0 x_1 x_SHA3_0 x_MLOAD_0 0 w)))
 (let ((?x7465 (storage_s x_0 x_1 x_SHA3_0 x_MLOAD_0 1 w)))
 (= ?x7465 ?x4950))))
 ))
 (let (($x10385 (forall ((n (_ BitVec 6)) )(let ((?x8010 (stack_s x_0 x_1 x_SHA3_0 x_MLOAD_0 0 n)))
 (let ((?x2184 (stack_s x_0 x_1 x_SHA3_0 x_MLOAD_0 1 n)))
 (let (($x2967 (= ?x2184 ?x8010)))
 (or $x2967 (bvsle (sc_s 0) n))))))
 ))
 (let (($x11593 (= ?x154 (bvadd (_ bv1 6) ?x72))))
 (let ((?x2965 (used_gas_s x_0 x_1 x_SHA3_0 x_MLOAD_0 1)))
 (let (($x8105 (= ?x2965 (+ 3 ?x7983))))
 (let (($x9629 (forall ((w0 (_ BitVec 256)) )(let (($x5144 (= (stack_s x_0 x_1 x_SHA3_0 x_MLOAD_0 3 (bvadd (_ bv63 6) (sc_s 3))) w0)))
 (let ((?x3199 (f_MLOAD x_0 x_1 x_SHA3_0 x_MLOAD_0 w0)))
 (= ?x3199 (ite $x5144 x_MLOAD_0 (_ bv0 256))))))
 ))
 (let (($x859 (forall ((w0 (_ BitVec 256)) (w1 (_ BitVec 256)) )(let (($x10330 (= (stack_s x_0 x_1 x_SHA3_0 x_MLOAD_0 1 (bvadd (_ bv62 6) (sc_s 1))) w1)))
 (let (($x8836 (= (stack_s x_0 x_1 x_SHA3_0 x_MLOAD_0 1 (bvadd (_ bv63 6) (sc_s 1))) w0)))
 (let ((?x435 (f_SHA3 x_0 x_1 x_SHA3_0 x_MLOAD_0 w0 w1)))
 (= ?x435 (ite (and $x8836 $x10330) x_SHA3_0 (_ bv0 256)))))))
 ))
 (let (($x9248 (forall ((w (_ BitVec 256)) )(let ((?x4950 (storage_s x_0 x_1 x_SHA3_0 x_MLOAD_0 0 w)))
 (= ?x4950 (_ bv0 256))))
 ))
 (let (($x2473 (= ?x7983 0)))
 (let (($x11787 (not $x57)))
 (let (($x311 (= (stack_s x_0 x_1 x_SHA3_0 x_MLOAD_0 0 (_ bv1 6)) x_1)))
 (let (($x8107 (= (stack_s x_0 x_1 x_SHA3_0 x_MLOAD_0 0 (_ bv0 6)) x_0)))
 (let (($x162 (= ?x72 (_ bv2 6))))
 (and $x162 $x8107 $x311 $x11787 $x2473 $x9248 $x859 $x9629 (= (stack_s x_0 x_1 x_SHA3_0 x_MLOAD_0 1 ?x72) (_ bv0 256)) $x8105 $x11593 $x10385 $x6880 $x5732 (= ?x7214 ?x10447) (= ?x7909 (+ 30 ?x2965)) (= ?x218 ?x11806) $x10147 $x1881 $x5135 (= ?x4281 (stack_s x_0 x_1 x_SHA3_0 x_MLOAD_0 2 (bvadd (_ bv62 6) ?x218))) (= ?x8067 ?x7214) $x2766 $x4482 $x9349 $x3942 $x7400 (= ?x3821 (f_MLOAD x_0 x_1 x_SHA3_0 x_MLOAD_0 ?x4281)) $x6108 $x3747 $x10101 $x5859 $x2359 (= ?x1720 (+ 2 ?x6197)) (= ?x805 ?x129) $x8687 $x3553 $x5870 (= ?x8164 ?x9573) (= ?x6850 ?x7836) $x4745 (= ?x4023 ?x63) $x10523 $x3064 (= (exc_halt_t 1) (or $x56 (not (bvsle (_ bv0 6) ?x61)))) $x3505 $x7888 $x5205 $x7313 $x6953 $x4091 (= ?x9153 (f_MLOAD x_0 x_1 x_SHA3_0 x_MLOAD_0 ?x8277)) $x1786 $x5319 $x7098 $x5299 $x509 (= ?x5407 ?x9969) (= ?x8325 (+ 30 ?x7568)) (= ?x3757 ?x11478) $x3469 $x4777 $x9828 $x73 $x6925 $x58 $x541 $x2987 (not (and $x9143 $x883 $x7567 $x9102)))))))))))))))))))))))))))))))))))))))))))))))))))))))))))))))))))))))))))))))))))))))))))))))))))))))))))))))))))))
 )
(check-sat)
(get-proof)
